qbf_easy_train/easy_3518_UNSAT.qdimacs
p cnf 25 62
a 19 12 6 0
e 1 2 3 4 5 7 8 9 10 11 13 14 15 16 17 18 20 21 22 23 24 25 0
-3 -1 0
-3 -2 0
1 2 3 0
6 -4 0
6 -5 0
4 5 -6 0
-9 7 0
-9 8 0
-7 -8 9 0
-6 -9 -10 0
6 9 -10 0
-6 9 10 0
6 -9 10 0
11 4 0
11 -2 0
-4 2 -11 0
10 11 -12 0
-10 -11 -12 0
10 -11 12 0
-10 11 12 0
-14 -7 0
-14 2 0
7 -2 14 0
15 -13 0
15 -14 0
13 14 -15 0
17 16 0
17 -16 0
17 -7 -18 0
-17 7 -18 0
17 7 18 0
-17 -7 18 0
-15 18 -19 0
15 -18 -19 0
-15 -18 19 0
15 18 19 0
-20 -12 0
-20 19 0
12 -19 20 0
8 -4 -21 0
-8 4 -21 0
8 4 21 0
-8 -4 21 0
22 20 0
22 -21 0
-20 21 -22 0
-23 3 0
-23 22 0
-3 -22 23 0
-24 1 0
-24 7 0
-1 -7 24 0
25 23 0
25 24 0
-23 -24 -25 0
14 -20 -23 24 -25 -10 1 16 0
20 -8 -22 0
9 -18 17 -14 0
-4 -7 5 13 0
7 -8 -2 -13 -1 6 10 -18 0
-2 -11 21 0
25 0
