sat_easy_train/easy_3518_UNSAT.dimacs
p cnf 140 469
-3 -1 0
-3 2 0
1 -2 3 0
-6 4 0
-6 5 0
-4 -5 6 0
-7 6 0
-7 3 0
-6 -3 7 0
8 3 0
8 7 0
-3 -7 -8 0
-4 9 -10 0
4 -9 -10 0
-4 -9 10 0
4 9 10 0
11 -8 0
11 10 0
8 -10 -11 0
-14 12 0
-14 13 0
-12 -13 14 0
15 14 0
15 5 0
-14 -5 -15 0
17 9 0
17 16 0
-9 -16 -17 0
18 -15 0
18 17 0
15 -17 -18 0
-19 12 0
-19 -18 0
-12 18 19 0
20 16 0
20 -13 0
-16 13 -20 0
22 -21 0
22 2 0
21 -2 -22 0
24 -4 0
24 23 0
4 -23 -24 0
25 -24 0
25 -5 0
24 5 -25 0
26 25 0
26 -5 0
-25 5 -26 0
-22 26 -27 0
22 -26 -27 0
-22 -26 27 0
22 26 27 0
28 -20 0
28 -27 0
20 27 -28 0
19 -28 -29 0
-19 28 -29 0
19 28 29 0
-19 -28 29 0
21 13 -31 0
-21 -13 -31 0
21 -13 31 0
-21 13 31 0
-32 30 0
-32 -31 0
-30 31 32 0
-33 -29 0
-33 -32 0
29 32 33 0
-35 2 0
-35 -34 0
-2 34 35 0
-36 5 0
-36 -35 0
-5 35 36 0
-37 -5 0
-37 36 0
5 -36 37 0
33 -37 -38 0
-33 37 -38 0
33 37 38 0
-33 -37 38 0
-39 5 0
-39 35 0
-5 -35 39 0
-39 -12 -40 0
39 12 -40 0
-39 12 40 0
39 -12 40 0
-41 38 0
-41 40 0
-38 -40 41 0
43 42 0
43 23 0
-42 -23 -43 0
44 15 0
44 -43 0
-15 43 -44 0
-32 45 -46 0
32 -45 -46 0
-32 -45 46 0
32 45 46 0
47 -44 0
47 46 0
44 -46 -47 0
-48 -41 0
-48 47 0
41 -47 48 0
-49 11 0
-49 48 0
-11 -48 49 0
50 -2 0
50 -14 0
2 14 -50 0
51 24 0
51 7 0
-24 -7 -51 0
-50 51 -52 0
50 -51 -52 0
-50 -51 52 0
50 51 52 0
-49 52 -53 0
49 -52 -53 0
-49 -52 53 0
49 52 53 0
50 -1 -54 0
-50 1 -54 0
50 1 54 0
-50 -1 54 0
-54 -45 -55 0
54 45 -55 0
-54 45 55 0
54 -45 55 0
56 36 0
56 -55 0
-36 55 -56 0
-57 56 0
-57 51 0
-56 -51 57 0
-58 -31 0
-58 -1 0
31 1 58 0
59 58 0
59 -23 0
-58 23 -59 0
60 1 0
60 21 0
-1 -21 -60 0
-61 -21 0
-61 60 0
21 -60 61 0
-62 14 0
-62 61 0
-14 -61 62 0
-63 -4 0
-63 -23 0
4 23 63 0
-64 -63 0
-64 23 0
63 -23 64 0
-65 -62 0
-65 64 0
62 -64 65 0
-59 65 -66 0
59 -65 -66 0
-59 -65 66 0
59 65 66 0
67 -57 0
67 -66 0
57 66 -67 0
24 64 -68 0
-24 -64 -68 0
24 -64 68 0
-24 64 68 0
69 -20 0
69 -27 0
20 27 -69 0
6 -54 -70 0
-6 54 -70 0
6 54 70 0
-6 -54 70 0
69 -70 -71 0
-69 70 -71 0
69 70 71 0
-69 -70 71 0
-72 68 0
-72 71 0
-68 -71 72 0
67 -72 -73 0
-67 72 -73 0
67 72 73 0
-67 -72 73 0
74 -53 0
74 73 0
53 -73 -74 0
75 -5 0
75 2 0
5 -2 -75 0
4 63 -76 0
-4 -63 -76 0
4 -63 76 0
-4 63 76 0
-42 -76 -77 0
42 76 -77 0
-42 76 77 0
42 -76 77 0
-64 -43 -79 0
64 43 -79 0
-64 43 79 0
64 -43 79 0
80 59 0
80 79 0
-59 -79 -80 0
-81 80 0
-81 3 0
-80 -3 81 0
82 -78 0
82 81 0
78 -81 -82 0
-83 77 0
-83 -82 0
-77 82 83 0
-84 75 0
-84 83 0
-75 -83 84 0
-85 -17 0
-85 -12 0
17 12 85 0
86 43 0
86 22 0
-43 -22 -86 0
-86 -39 -87 0
86 39 -87 0
-86 39 87 0
86 -39 87 0
-88 -12 0
-88 87 0
12 -87 88 0
89 -85 0
89 -88 0
85 88 -89 0
-84 -89 -90 0
84 89 -90 0
-84 89 90 0
84 -89 90 0
91 -1 0
91 -87 0
1 87 -91 0
-1 91 -92 0
1 -91 -92 0
-1 -91 92 0
1 91 92 0
93 -79 0
93 34 0
79 -34 -93 0
-94 -93 0
-94 -43 0
93 43 94 0
-95 92 0
-95 -94 0
-92 94 95 0
-96 85 0
-96 -85 0
-97 -95 0
-97 96 0
95 -96 97 0
26 63 -98 0
-26 -63 -98 0
26 -63 98 0
-26 63 98 0
99 97 0
99 -98 0
-97 98 -99 0
100 90 0
100 -99 0
-90 99 -100 0
-74 -100 -101 0
74 100 -101 0
-74 100 101 0
74 -100 101 0
-102 21 -103 0
102 -21 -103 0
-102 -21 103 0
102 21 103 0
-104 36 0
-104 -14 0
-36 14 104 0
105 102 0
105 22 0
-102 -22 -105 0
106 22 0
106 86 0
-22 -86 -106 0
105 -106 -107 0
-105 106 -107 0
105 106 107 0
-105 -106 107 0
-108 -104 0
-108 -107 0
104 107 108 0
109 -103 0
109 -108 0
103 108 -109 0
-110 -19 0
-110 42 0
19 -42 110 0
110 -88 -111 0
-110 88 -111 0
110 88 111 0
-110 -88 111 0
112 -26 0
112 55 0
26 -55 -112 0
-113 -43 0
-113 32 0
43 -32 113 0
-20 88 -114 0
20 -88 -114 0
-20 -88 114 0
20 88 114 0
115 -113 0
115 -114 0
113 114 -115 0
112 -115 -116 0
-112 115 -116 0
112 115 116 0
-112 -115 116 0
-117 -111 0
-117 116 0
111 -116 117 0
-1 -19 -118 0
1 19 -118 0
-1 19 118 0
1 -19 118 0
-119 79 0
-119 -51 0
-79 51 119 0
120 -79 0
120 59 0
79 -59 -120 0
-121 9 0
-121 120 0
-9 -120 121 0
122 -25 0
122 -121 0
25 121 -122 0
123 -119 0
123 122 0
119 -122 -123 0
124 17 0
124 -4 0
-17 4 -124 0
-124 25 -125 0
124 -25 -125 0
-124 -25 125 0
124 25 125 0
-126 22 0
-126 125 0
-22 -125 126 0
127 123 0
127 -126 0
-123 126 -127 0
128 118 0
128 127 0
-118 -127 -128 0
129 -117 0
129 -128 0
117 128 -129 0
-85 18 -130 0
85 -18 -130 0
-85 -18 130 0
85 18 130 0
-131 -29 0
-131 130 0
29 -130 131 0
132 -13 0
132 -30 0
13 30 -132 0
-133 131 0
-133 132 0
-131 -132 133 0
134 -129 0
134 133 0
129 -133 -134 0
109 134 -135 0
-109 -134 -135 0
109 -134 135 0
-109 134 135 0
-101 135 -136 0
101 -135 -136 0
-101 -135 136 0
101 135 136 0
-137 -21 0
-137 -110 0
21 110 137 0
32 22 -138 0
-32 -22 -138 0
32 -22 138 0
-32 22 138 0
-137 -138 -139 0
137 138 -139 0
-137 138 139 0
137 -138 139 0
-140 -136 0
-140 139 0
136 -139 140 0
-139 55 -4 0
-61 84 0
105 61 -2 0
-17 -10 -22 -99 0
-102 120 60 119 21 0
133 124 -88 -112 71 47 0
-78 12 36 140 99 0
-42 -122 -103 20 -77 -21 0
-134 -32 -36 -84 0
68 110 -78 -72 -11 0
-77 -130 0
-32 103 0
101 -5 -115 133 0
-33 8 0
63 134 -39 0
93 -30 35 24 0
-122 74 0
40 -27 0
-4 -39 -117 55 23 0
-59 114 130 -107 -51 0
-14 -117 -139 -31 0
-68 42 -108 -103 -77 0
107 -61 0
-90 111 -125 0
86 30 0
44 -21 27 0
-20 -89 0
-49 126 -80 -40 0
-70 -26 0
73 63 -38 93 -131 0
-31 5 136 -88 -102 -109 0
-29 -40 -133 1 138 0
11 50 140 0
-136 97 102 0
22 -30 104 103 -105 -132 0
48 53 139 0
1 58 -14 116 0
-49 -42 -10 0
-76 20 131 18 0
100 -105 -103 0
50 4 126 -109 123 -84 0
-86 42 0
-128 5 99 -25 0
78 140 -125 0
-99 -95 0
138 -9 -36 0
7 -119 74 16 -100 0
-93 -94 112 0
-80 -92 12 -101 28 -22 0
27 109 0
-106 -49 104 0
111 -60 0
31 -23 -128 0
87 33 0
-43 134 0
103 107 0
82 -135 -17 38 0
27 55 -19 20 0
114 -138 -47 -69 0
43 -3 94 -79 -28 0
-53 -27 -65 130 95 40 0
140 0
